c WARNING: for repeatability, setting FPU to use double precision
d VARIABLES            27306        
d CONSTRAINTS          101392       
c ============================[ Problem Statistics ]=============================
c |                                                                             |
c |  Number of variables:         27306                                         |
c |  Number of clauses:          101392                                         |
c |  Parse time:                   0.02 s                                       |
c |                                                                             |
c ============================[ Search Statistics ]==============================
c | Conflicts |          ORIGINAL         |          LEARNT          | Progress |
c |           |    Vars  Clauses Literals |    Limit  Clauses Lit/Cl |          |
c ===============================================================================
c |       100 |   17940    77358   190233 |    28364      100     39 | 34.300 % |
c |       250 |   17940    77358   190233 |    31201      250     44 | 34.300 % |
c |       475 |   17940    77358   190233 |    34321      475     56 | 34.300 % |
c |       812 |   17940    77358   190233 |    37753      812     69 | 34.300 % |
c |      1318 |   17940    77358   190233 |    41528     1318     69 | 34.300 % |
c |      2077 |   17940    77358   190233 |    45681     2077     74 | 34.300 % |
c |      3216 |   17940    77358   190233 |    50249     3216     75 | 34.300 % |
c |      4924 |   17940    77358   190233 |    55274     4924     74 | 34.300 % |
c |      7486 |   17940    77358   190233 |    60802     7486     80 | 34.300 % |
c |     11330 |   17940    77358   190233 |    66882    11330     91 | 34.300 % |
c |     17096 |   17940    77358   190233 |    73570    17096     92 | 34.300 % |
c |     25745 |   17940    77358   190233 |    80927    25745     92 | 34.300 % |
c |     38719 |   17940    77358   190233 |    89020    38719     85 | 34.300 % |
c ===============================================================================
c restarts              : 142
c conflicts             : 47873          (5286 /sec)
c decisions             : 97631          (0.00 % random) (10780 /sec)
c propagations          : 30541036       (3372253 /sec)
c conflict literals     : 3880777        (45.38 % deleted)
d RESTARTS             142
d FAILURES             47873        
d NODES                97631        
d BACKTRACKS           97631        
d PROPAGATIONS         30541036     
d NOGOODSIZE           81.06 
d MEMORY               36.00 
d TIME                 9.05657 

s UNSATISFIABLE
